\ This file has been generated by DOcplex
\ ENCODING=ISO-8859-1
\Problem name: random17742_6.lp

Minimize
 obj: - 1396 x0 - 698 x1 - 349 x2 + 1172 x3 + 586 x4 + 293 x5 + [ 1888 x0^2
      + 1888 x0*x1 + 944 x0*x2 + 1344 x0*x3 + 672 x0*x4 + 336 x0*x5 + 472 x1^2
      + 472 x1*x2 + 672 x1*x3 + 336 x1*x4 + 168 x1*x5 + 118 x2^2 + 336 x2*x3
      + 168 x2*x4 + 84 x2*x5 + 4960 x3^2 + 4960 x3*x4 + 2480 x3*x5 + 1240 x4^2
      + 1240 x4*x5 + 310 x5^2 ]/2
Subject To
 c0: 4 x0 + 2 x1 + x2 + 4 x3 + 2 x4 + x5 = 7

Bounds
 0 <= x0 <= 1
 0 <= x1 <= 1
 0 <= x2 <= 1
 0 <= x3 <= 1
 0 <= x4 <= 1
 0 <= x5 <= 1

Binaries
 x0 x1 x2 x3 x4 x5
End
